50
1000
350
348
338
335
334
328
322
306
306
305
296
288
287
286
284
279
266
264
247
231
228
227
219
205
204
202
195
192
158
155
149
138
135
134
131
129
128
121
118
118
113
103
103
98
96
83
82
82
77
30
